<number of tasks>
20

<cycle time>
1000

<order strength>
0,211


<task times>
1 212
2 40
3 110
4 240
5 44
6 77
7 78
8 192
9 159
10 151
11 177
12 52
13 219
14 255
15 103
16 56
17 105
18 30
19 312
20 106

<precedence relations>
1,6
1,8
4,7
6,10
7,9
8,11
8,12
10,15
11,13
12,14
14,16
15,17
15,18
15,19
15,20

<end>
